W=5;
H=5;

MAX_TIME=12;
MAX_TRACKS=12;

TARGET=(5,5);

N_TRAINS=3;
TRAINS=[(5,1,TOP),(1,5,DOWN),(1,1,DOWN)];

N_INIT_POS=5;
INIT_POS=[
(1,1,STRAIGHT_TD),
(1,5,STRAIGHT_TD),
(3,3,EMPTY),
(5,1,STRAIGHT_TD),
(5,5,STRAIGHT_RL),
];
N_TUNNELS=2;
TUNNEL_PAIRS=[
  (3, 1, RIGHT, 3, 5, LEFT),
  (1, 3, DOWN, 5, 3, TOP),
];

N_GATES=0;
GATES=[];
N_ACTIVATIONS=0;
ACTIVATIONS=[];

N_DSWITCHES=0;
DSWITCHES=[];
N_STATIONS=0;
STATIONS=[];
